\Problem name: 

Minimize
OBJROW: -9 x_0 -7 x_1 -10 x_2 -7 x_3 -9 x_4 -6 x_5 -8 x_6 -4 x_7 -9 x_8
Subject To
constr(0):  4 x_0 + 9 x_1 + 4 x_2 + x_3 + 9 x_4 + 6 x_5 + 3 x_6 + 6 x_7 + x_8 <= 40
constr(1):  3 x_0 + 7 x_1 + 8 x_2 + 7 x_3 + 6 x_4 + 3 x_5 + 5 x_6 + 9 x_7 + 4 x_8 <= 80
constr(2):  9 x_0 + 3 x_1 + 6 x_2 + 5 x_3 + 7 x_4 + x_5 + x_6 + 3 x_7 + 9 x_8 <= 40
constr(3):  5 x_0 + 9 x_1 + 6 x_2 + 5 x_3 + 9 x_4 + 7 x_5 + 8 x_6 + 7 x_7 + 8 x_8 <= 10
constr(4):  7 x_0 + 7 x_1 + 4 x_2 + x_3 + 3 x_4 + 4 x_5 + 8 x_6 + x_7 + 9 x_8 <= 10
constr(5):  x_0 + 6 x_1 + 6 x_2 + x_3 + 6 x_4 + 7 x_5 + 3 x_6 + 8 x_7 + 7 x_8 <= 10
constr(6):  6 x_0 + 6 x_1 + 8 x_2 + 6 x_3 + 10 x_4 + 8 x_5 + x_6 + 4 x_7 + 4 x_8 <= 70
constr(7):  9 x_0 + x_1 + 9 x_2 + 7 x_3 + 10 x_4 + 5 x_5 + 6 x_6 + 2 x_7 + 5 x_8 <= 10
constr(8):  2 x_0 + 7 x_1 + 6 x_2 + 5 x_3 + x_4 + x_5 + 9 x_6 + 2 x_7 + x_8 <= 20
constr(9):  x_2 = 1
constr(10):  x_1 = 0
constr(11):  x_7 = 0
constr(12):  x_8 = 0
constr(13):  x_6 = 0
constr(14):  x_5 = 0
constr(15):  x_0 = 0
constr(16):  x_3 = 0
constr(17):  x_4 = 0
Bounds
End
